
Gurobi 11.0.1 (win64) logging started Thu May 16 19:14:43 2024

Set parameter LogFile to value "output/solver_log1.txt"
Gurobi Optimizer version 11.0.1 build v11.0.1rc0 (win64 - Windows 11.0 (22631.2))

CPU model: 11th Gen Intel(R) Core(TM) i7-1165G7 @ 2.80GHz, instruction set [SSE2|AVX|AVX2|AVX512]
Thread count: 4 physical cores, 8 logical processors, using up to 8 threads

Optimize a model with 6777 rows, 1843 columns and 130552 nonzeros
Model fingerprint: 0xa6cba249
Variable types: 568 continuous, 1275 integer (1275 binary)
Coefficient statistics:
  Matrix range     [4e-01, 1e+05]
  Objective range  [1e+00, 1e+02]
  Bounds range     [1e+00, 1e+00]
  RHS range        [1e-02, 1e+05]

User MIP start produced solution with objective 80779.8 (0.01s)
User MIP start produced solution with objective 80779.8 (0.01s)
Loaded user MIP start with objective 80779.8

Presolve removed 1269 rows and 720 columns
Presolve time: 0.14s
Presolved: 5508 rows, 1123 columns, 105922 nonzeros
Variable types: 520 continuous, 603 integer (600 binary)

Root relaxation: objective 8.987840e+04, 2251 iterations, 0.13 seconds (0.27 work units)

    Nodes    |    Current Node    |     Objective Bounds      |     Work
 Expl Unexpl |  Obj  Depth IntInf | Incumbent    BestBd   Gap | It/Node Time

     0     0 89878.3993    0   67 80779.7987 89878.3993  11.3%     -    0s
     0     0 88723.7009    0   74 80779.7987 88723.7009  9.83%     -    0s
     0     0 88353.2389    0  108 80779.7987 88353.2389  9.38%     -    1s
     0     0 87955.6440    0  188 80779.7987 87955.6440  8.88%     -    1s
     0     0 87912.1923    0  142 80779.7987 87912.1923  8.83%     -    1s
     0     0 87851.1197    0  221 80779.7987 87851.1197  8.75%     -    1s
     0     0 87823.8493    0  182 80779.7987 87823.8493  8.72%     -    1s
     0     0 87816.8797    0  176 80779.7987 87816.8797  8.71%     -    1s
     0     0 87816.8214    0  178 80779.7987 87816.8214  8.71%     -    1s
     0     0 87730.9021    0  180 80779.7987 87730.9021  8.61%     -    2s
     0     0 87711.1748    0  146 80779.7987 87711.1748  8.58%     -    2s
     0     0 87711.1748    0  149 80779.7987 87711.1748  8.58%     -    2s
     0     0 87711.1748    0  145 80779.7987 87711.1748  8.58%     -    2s
     0     0 87711.1748    0  133 80779.7987 87711.1748  8.58%     -    2s
     0     0 87711.1748    0  129 80779.7987 87711.1748  8.58%     -    2s
     0     0 87711.1748    0  125 80779.7987 87711.1748  8.58%     -    2s
     0     0 87711.1748    0  144 80779.7987 87711.1748  8.58%     -    2s
     0     0 87711.1748    0  127 80779.7987 87711.1748  8.58%     -    2s
     0     0 87711.1748    0  124 80779.7987 87711.1748  8.58%     -    2s
     0     0 87711.1748    0  137 80779.7987 87711.1748  8.58%     -    2s
     0     0 87711.1748    0  141 80779.7987 87711.1748  8.58%     -    2s
     0     0 87711.1748    0  141 80779.7987 87711.1748  8.58%     -    3s
     0     0 87711.1748    0  144 80779.7987 87711.1748  8.58%     -    3s
     0     0 87711.1748    0  146 80779.7987 87711.1748  8.58%     -    3s
     0     0 87711.1748    0  144 80779.7987 87711.1748  8.58%     -    3s
     0     0 87711.1748    0  144 80779.7987 87711.1748  8.58%     -    3s
     0     0 87711.1717    0  139 80779.7987 87711.1717  8.58%     -    3s
     0     0 87711.1717    0  116 80779.7987 87711.1717  8.58%     -    3s
     0     2 87711.1717    0  114 80779.7987 87711.1717  8.58%     -    3s
    32    24 83409.6497    7   68 80779.7987 87711.1717  8.58%   364    5s
H   92    64                    80915.158677 87711.1717  8.40%   204    6s
H   96    64                    80954.550914 87711.1717  8.35%   200    6s
H  134    77                    81108.358323 87711.1717  8.14%   162    6s
H  203   101                    81168.961114 87711.1717  8.06%   121    6s
H  240   115                    81221.906360 87711.1717  7.99%   108    7s
H  679   216                    81526.143023 87711.0761  7.59%  52.2    8s
H  683   215                    81656.509671 87711.0761  7.41%  52.2    8s
H  812   248                    82501.524484 87711.0761  6.31%  52.3    9s
   871   282 86603.2764   27   92 82501.5245 87711.0761  6.31%  53.2   11s
H  878   281                    82562.941271 87711.0761  6.24%  52.9   11s
H 1071   355                    82660.404204 87711.0761  6.11%  51.7   11s
  1605   624 86677.4506   28   67 82660.4042 87461.1709  5.81%  49.9   15s
  1612   629 86325.2660   18   78 82660.4042 87461.1709  5.81%  49.7   20s
  1697   671 86182.3740   27   74 82660.4042 87461.1709  5.81%  66.0   25s
  1992   705 infeasible   84      82660.4042 87461.1709  5.81%  64.4   30s
H 2219   686                    82781.080600 87461.1709  5.65%  68.6   32s
  2454   736 infeasible   46      82781.0806 87461.1709  5.65%  72.7   35s
  3230   773 87055.1670   26   98 82781.0806 87461.1709  5.65%  71.1   42s
H 3274   734                    83048.163908 87461.1709  5.31%  71.0   42s
  3832  1038 83594.8090  144   32 83048.1639 87461.1709  5.31%  69.3   45s
  4807  1569 86448.1694   23  152 83048.1639 87461.1709  5.31%  74.6   50s
  5359  1864 83781.1267   29   88 83048.1639 87461.1709  5.31%  80.4   55s
  6314  2263 87242.1522   29  129 83048.1639 87461.1709  5.31%  83.4   60s

Cutting planes:
  Cover: 3
  Implied bound: 4
  Projected implied bound: 6
  MIR: 24
  Flow cover: 42
  RLT: 5
  Relax-and-lift: 20

Explored 6520 nodes (555026 simplex iterations) in 60.02 seconds (122.66 work units)
Thread count was 8 (of 8 available processors)

Solution count 10: 83048.2 82781.1 82660.4 ... 81108.4

Time limit reached
Best objective 8.304816390810e+04, best bound 8.746117091443e+04, gap 5.3138%
